
  22   10
  10   10   10   10   10   10   10   10   10   10

   0   0   0   0   0   0   0   0   0   0   0   6 2 4 7 8 9 21 
   5   0   0   0   0   0   0  10   0   0   0   2 12 3 
   7   0   0   0   0   0   0   0   0  10   0   4 18 17 11 5 
   2   0  10   0   0   0   0   0   0   0   0   5 19 18 17 15 6 
   6   0   0   0  10   0   0   0   0   0   0   4 20 19 15 6 
   3   0   0   0   0   0   0   0   0   0  10   3 16 13 10 
  10   0   0   0   0   0  10   0   0   0   0   3 18 17 13 
   9   0   0   0   0   0   0   0   0   0  10   2 14 12 
   8   0   0   0  10   0   0   0   0   0   0   1 11 
   2   0   0   0   0   0   0  10   0   0   0   1 14 
   9   0   0   0   0   0   0   0   0   0  10   1 15 
  10   0   0   0   0   0   0   0   0  10   0   1 13 
   7   0   0   0   0   0   0   0  10   0   0   1 22
   4   0   0   0   0   0  10   0   0   0   0   1 22
   9  10   0   0   0   0   0   0   0   0   0   1 22
   3   0   0   0   0   0   0   0   0  10   0   1 22
   5   0   0   0   0   0   0  10   0   0   0   1 22
   3   0  10   0   0   0   0   0   0   0   0   1 22
   1  10   0   0   0   0   0   0   0   0   0   1 22
   4   0   0   0   0   0   0   0   0   0  10   1 22
   8   0   0   0  10   0   0   0   0   0   0   1 22
   0   0   0   0   0   0   0   0   0   0   0   0 
